c read Graph
c width = 167
c time = 134 ms
c width = 13
c time = 218 ms
c width = 12
c time = 282 ms
c width = 11
c time = 331 ms
c width = 10
c time = 1632 ms
c width = 10
c time = 4866 ms
s td 165 11 180
b 1 1 2 21
b 2 2 3 21 22
b 3 18 19 39 40
b 4 3 21 22 41
b 5 18 39 40 60
b 6 121 141 142 162
b 7 140 159 160 179
b 8 121 142 162 163
b 9 140 159 178 179
b 10 3 4 5 24
b 11 3 5 23 24 42 61
b 12 5 23 24 42 44 61 63
b 13 5 24 42 44 61 63 82
b 14 5 24 44 61 63 82 101
b 15 5 24 26 44 45 63 82 101
b 16 5 26 44 45 63 65 82 84 101
b 17 44 63 64 65 84
b 18 5 26 45 63 65 82 84 101 103
b 19 5 26 45 65 82 84 101 103 124 145 166
b 20 82 101 103 124 145 164 166
b 21 145 164 165 166
b 22 82 101 103 124 143 145 164
b 23 124 143 144 145 164
b 24 82 101 103 122 124 143 164
b 25 101 122 143 163 164
b 26 101 121 122 143 163
b 27 121 122 142 143 163
b 28 103 122 123 124 143
b 29 82 101 102 103 122
b 30 5 26 45 65 84 103 105 124 145 166
b 31 5 26 45 65 84 105 124 126 145 166
b 32 5 26 45 65 84 105 126 145 147 166
b 33 126 145 146 147 166
b 34 5 26 45 65 84 86 105 126 147 166
b 35 5 26 45 65 66 86 105 126 147 166
b 36 5 26 45 47 66 86 105 126 147 166
b 37 26 45 46 47 66
b 38 5 26 47 66 86 105 107 126 147 166
b 39 86 105 106 107 126
b 40 5 26 47 66 86 107 126 128 147 166
b 41 5 26 47 66 86 87 107 128 147 166
b 42 5 26 47 66 68 87 107 128 147 166
b 43 5 26 47 68 87 107 108 128 147 166
b 44 5 26 47 68 87 89 108 128 147 166
b 45 68 87 88 89 108
b 46 5 26 47 68 89 108 128 147 149 166 170
b 47 5 26 47 68 89 108 128 129 149 166 170
b 48 5 26 47 68 89 108 129 149 150 166 170
b 49 5 26 47 68 89 108 110 129 150 170
b 50 5 9 26 28 47 68 89 110 129 150 170
b 51 5 7 9 26 28 47
b 52 7 8 9 28
b 53 7 26 27 28 47
b 54 5 6 7 26
b 55 9 28 47 49 68 89 110 129 150 170
b 56 28 47 48 49 68
b 57 9 28 30 49 68 89 110 129 150 170
b 58 9 28 29 30 49
b 59 9 30 49 68 70 89 110 129 150 170
b 60 9 30 49 51 70 89 110 129 150 170
b 61 30 49 50 51 70
b 62 9 30 51 70 89 110 129 131 150 170
b 63 9 30 51 70 89 91 110 131 150 170
b 64 70 89 90 91 110
b 65 9 30 51 70 72 91 110 131 150 170
b 66 9 30 51 72 91 110 112 131 150 170
b 67 9 30 51 72 91 93 112 131 150 170
b 68 72 91 92 93 112
b 69 9 30 51 72 93 112 131 150 152 170 172
b 70 9 30 51 72 93 112 131 133 152 170 172
b 71 9 30 51 72 93 112 133 152 154 172 174
b 72 133 152 153 154 172 174
b 73 153 172 173 174
b 74 9 13 30 32 51 72 93 112 133 154 174
b 75 13 32 51 53 72 93 112 133 154 174
b 76 32 51 53 72 93 112 133 154 174
b 77 32 51 52 53 72
b 78 13 32 34 53 72 93 112 133 154 174
b 79 13 32 33 34 53
b 80 13 34 53 72 74 93 112 133 154 174
b 81 13 34 53 74 93 112 114 133 154 174
b 82 13 34 53 74 93 95 114 133 154 174
b 83 74 93 94 95 114
b 84 13 34 53 74 95 114 133 135 154 174
b 85 13 34 53 74 95 114 116 135 154 174
b 86 95 114 115 116 135
b 87 114 133 134 135 154
b 88 93 112 113 114 133
b 89 53 72 73 74 93
b 90 9 11 13 30 32 51
b 91 9 10 11 30
b 92 11 12 13 32
b 93 11 30 31 32 51
b 94 112 131 132 133 152
b 95 131 150 151 152 170 172
b 96 151 170 171 172
b 97 91 110 111 112 131
b 98 51 70 71 72 91
b 99 110 129 130 131 150
b 100 49 68 69 70 89
b 101 89 108 109 110 129
b 102 128 147 149 166 168 170
b 103 147 166 167 168
b 104 149 168 169 170
b 105 128 147 148 149 168
b 106 47 66 67 68 87
b 107 107 126 127 128 147
b 108 65 84 85 86 105
b 109 105 124 125 126 145
b 110 84 103 104 105 124
b 111 63 82 83 84 103
b 112 5 24 25 26 45
b 113 61 81 82 101
b 114 42 61 62 63 82
b 115 23 42 43 44 63
b 116 3 23 41 42 61
b 117 3 22 23 41 42
b 118 13 14 15 34
b 119 55 74 75 76 95
b 120 76 95 96 97 116
b 121 15 17 36 57 78 99 120
b 122 135 154 155 156 174 176
b 123 13 34 53 55 74 95 116 135 154 174
b 124 13 34 55 74 76 95 116 135 154 174
b 125 13 15 34 55 76 95 116 135 154 174
b 126 15 34 36 55 76 95 116 135 154 174
b 127 15 36 55 57 76 95 116 135 154 174
b 128 15 36 57 76 95 97 116 135 154 174
b 129 15 36 57 76 78 97 116 135 154 174
b 130 15 36 57 78 97 99 116 120 135 154 174
b 131 78 97 99 116 118 120 135 154 174
b 132 97 99 116 118 120 135 137 154 174
b 133 99 116 118 120 135 137 154 156 174
b 134 99 118 120 135 137 154 156 174 176
b 135 135 137 154 156 174 176
b 136 34 53 54 55 74
b 137 155 174 175 176
b 138 99 118 120 137 156 158 176 178
b 139 137 156 157 158 176 178
b 140 157 176 177 178
b 141 99 118 120 137 139 158 178
b 142 120 139 140 158 178
b 143 139 140 158 159 178
b 144 118 137 138 139 158
b 145 99 118 119 120 139
b 146 116 135 136 137 156
b 147 97 116 117 118 137
b 148 15 16 17 36
b 149 15 34 35 36 55
b 150 57 76 77 78 97
b 151 36 55 56 57 76
b 152 17 36 57 78 80 99 120
b 153 80 99 100 120
b 154 17 36 57 59 78 80 99
b 155 59 78 79 80 99
b 156 17 36 38 57 59 78 80
b 157 17 36 37 38 57
b 158 38 57 58 59 78
b 159 17 38 59 60 80
b 160 17 18 38 59 60
b 161 18 38 39 59 60
b 162 78 97 98 99 118
b 163 160 179 180
b 164 141 161 162
b 165 19 20 40
1 2
2 4
3 165
3 5
4 117
5 161
6 164
6 8
7 163
7 9
8 27
9 143
10 11
11 116
11 12
12 115
12 13
13 114
13 14
14 113
14 15
15 112
15 16
16 18
16 17
18 111
18 19
19 30
19 20
20 21
20 22
22 23
22 24
24 25
24 29
24 28
25 26
26 27
30 110
30 31
31 109
31 32
32 34
32 33
34 108
34 35
35 36
36 38
36 37
38 40
38 39
40 107
40 41
41 42
42 106
42 43
43 44
44 46
44 45
46 102
46 47
47 48
48 49
49 101
49 50
50 55
50 51
51 52
51 53
51 54
55 57
55 56
57 59
57 58
59 100
59 60
60 62
60 61
62 99
62 63
63 65
63 64
65 98
65 66
66 97
66 67
67 69
67 68
69 95
69 70
70 94
70 71
71 74
71 72
72 73
74 90
74 75
75 78
75 76
76 77
78 80
78 79
80 89
80 81
81 88
81 82
82 84
82 83
84 87
84 85
85 123
85 86
90 92
90 93
90 91
95 96
102 105
102 104
102 103
116 117
118 125
119 124
120 128
121 148
121 152
121 130
122 137
122 135
123 136
123 124
124 125
125 126
126 149
126 127
127 151
127 128
128 129
129 150
129 130
130 131
131 162
131 132
132 147
132 133
133 146
133 134
134 138
134 135
138 139
138 141
139 140
141 142
141 144
141 145
142 143
152 153
152 154
154 156
154 155
156 159
156 157
156 158
159 160
160 161
